c
c Generated WCNF file
c
p wcnf 106 484 34106
34106 15 0
34106 -16 1 0
34106 -16 2 0
34106 16 -1 -2 0
34106 -17 1 0
34106 -17 3 0
34106 17 -1 -3 0
34106 -18 1 0
34106 -18 4 0
34106 18 -1 -4 0
34106 -19 1 0
34106 -19 5 0
34106 19 -1 -5 0
34106 -20 1 0
34106 -20 6 0
34106 20 -1 -6 0
34106 -21 1 0
34106 -21 7 0
34106 21 -1 -7 0
34106 -22 1 0
34106 -22 8 0
34106 22 -1 -8 0
34106 -23 1 0
34106 -23 9 0
34106 23 -1 -9 0
34106 -24 1 0
34106 -24 10 0
34106 24 -1 -10 0
34106 -25 1 0
34106 -25 11 0
34106 25 -1 -11 0
34106 -26 1 0
34106 -26 12 0
34106 26 -1 -12 0
34106 -27 1 0
34106 -27 13 0
34106 27 -1 -13 0
34106 -28 1 0
34106 -28 14 0
34106 28 -1 -14 0
34106 -29 2 0
34106 -29 3 0
34106 29 -2 -3 0
34106 -30 2 0
34106 -30 4 0
34106 30 -2 -4 0
34106 -31 2 0
34106 -31 5 0
34106 31 -2 -5 0
34106 -32 2 0
34106 -32 6 0
34106 32 -2 -6 0
34106 -33 2 0
34106 -33 7 0
34106 33 -2 -7 0
34106 -34 2 0
34106 -34 8 0
34106 34 -2 -8 0
34106 -35 2 0
34106 -35 9 0
34106 35 -2 -9 0
34106 -36 2 0
34106 -36 10 0
34106 36 -2 -10 0
34106 -37 2 0
34106 -37 11 0
34106 37 -2 -11 0
34106 -38 2 0
34106 -38 12 0
34106 38 -2 -12 0
34106 -39 2 0
34106 -39 13 0
34106 39 -2 -13 0
34106 -40 2 0
34106 -40 14 0
34106 40 -2 -14 0
34106 -41 3 0
34106 -41 4 0
34106 41 -3 -4 0
34106 -42 3 0
34106 -42 5 0
34106 42 -3 -5 0
34106 -43 3 0
34106 -43 6 0
34106 43 -3 -6 0
34106 -44 3 0
34106 -44 7 0
34106 44 -3 -7 0
34106 -45 3 0
34106 -45 8 0
34106 45 -3 -8 0
34106 -46 3 0
34106 -46 9 0
34106 46 -3 -9 0
34106 -47 3 0
34106 -47 10 0
34106 47 -3 -10 0
34106 -48 3 0
34106 -48 11 0
34106 48 -3 -11 0
34106 -49 3 0
34106 -49 12 0
34106 49 -3 -12 0
34106 -50 3 0
34106 -50 13 0
34106 50 -3 -13 0
34106 -51 3 0
34106 -51 14 0
34106 51 -3 -14 0
34106 -52 4 0
34106 -52 5 0
34106 52 -4 -5 0
34106 -53 4 0
34106 -53 6 0
34106 53 -4 -6 0
34106 -54 4 0
34106 -54 7 0
34106 54 -4 -7 0
34106 -55 4 0
34106 -55 8 0
34106 55 -4 -8 0
34106 -56 4 0
34106 -56 9 0
34106 56 -4 -9 0
34106 -57 4 0
34106 -57 10 0
34106 57 -4 -10 0
34106 -58 4 0
34106 -58 11 0
34106 58 -4 -11 0
34106 -59 4 0
34106 -59 12 0
34106 59 -4 -12 0
34106 -60 4 0
34106 -60 13 0
34106 60 -4 -13 0
34106 -61 4 0
34106 -61 14 0
34106 61 -4 -14 0
34106 -62 5 0
34106 -62 6 0
34106 62 -5 -6 0
34106 -63 5 0
34106 -63 7 0
34106 63 -5 -7 0
34106 -64 5 0
34106 -64 8 0
34106 64 -5 -8 0
34106 -65 5 0
34106 -65 9 0
34106 65 -5 -9 0
34106 -66 5 0
34106 -66 10 0
34106 66 -5 -10 0
34106 -67 5 0
34106 -67 11 0
34106 67 -5 -11 0
34106 -68 5 0
34106 -68 12 0
34106 68 -5 -12 0
34106 -69 5 0
34106 -69 13 0
34106 69 -5 -13 0
34106 -70 5 0
34106 -70 14 0
34106 70 -5 -14 0
34106 -71 6 0
34106 -71 7 0
34106 71 -6 -7 0
34106 -72 6 0
34106 -72 8 0
34106 72 -6 -8 0
34106 -73 6 0
34106 -73 9 0
34106 73 -6 -9 0
34106 -74 6 0
34106 -74 10 0
34106 74 -6 -10 0
34106 -75 6 0
34106 -75 11 0
34106 75 -6 -11 0
34106 -76 6 0
34106 -76 12 0
34106 76 -6 -12 0
34106 -77 6 0
34106 -77 13 0
34106 77 -6 -13 0
34106 -78 6 0
34106 -78 14 0
34106 78 -6 -14 0
34106 -79 7 0
34106 -79 8 0
34106 79 -7 -8 0
34106 -80 7 0
34106 -80 9 0
34106 80 -7 -9 0
34106 -81 7 0
34106 -81 10 0
34106 81 -7 -10 0
34106 -82 7 0
34106 -82 11 0
34106 82 -7 -11 0
34106 -83 7 0
34106 -83 12 0
34106 83 -7 -12 0
34106 -84 7 0
34106 -84 13 0
34106 84 -7 -13 0
34106 -85 7 0
34106 -85 14 0
34106 85 -7 -14 0
34106 -86 8 0
34106 -86 9 0
34106 86 -8 -9 0
34106 -87 8 0
34106 -87 10 0
34106 87 -8 -10 0
34106 -88 8 0
34106 -88 11 0
34106 88 -8 -11 0
34106 -89 8 0
34106 -89 12 0
34106 89 -8 -12 0
34106 -90 8 0
34106 -90 13 0
34106 90 -8 -13 0
34106 -91 8 0
34106 -91 14 0
34106 91 -8 -14 0
34106 -92 9 0
34106 -92 10 0
34106 92 -9 -10 0
34106 -93 9 0
34106 -93 11 0
34106 93 -9 -11 0
34106 -94 9 0
34106 -94 12 0
34106 94 -9 -12 0
34106 -95 9 0
34106 -95 13 0
34106 95 -9 -13 0
34106 -96 9 0
34106 -96 14 0
34106 96 -9 -14 0
34106 -97 10 0
34106 -97 11 0
34106 97 -10 -11 0
34106 -98 10 0
34106 -98 12 0
34106 98 -10 -12 0
34106 -99 10 0
34106 -99 13 0
34106 99 -10 -13 0
34106 -100 10 0
34106 -100 14 0
34106 100 -10 -14 0
34106 -101 11 0
34106 -101 12 0
34106 101 -11 -12 0
34106 -102 11 0
34106 -102 13 0
34106 102 -11 -13 0
34106 -103 11 0
34106 -103 14 0
34106 103 -11 -14 0
34106 -104 12 0
34106 -104 13 0
34106 104 -12 -13 0
34106 -105 12 0
34106 -105 14 0
34106 105 -12 -14 0
34106 -106 13 0
34106 -106 14 0
34106 106 -13 -14 0
20439 1 0
34096 -1 0
41552 16 0
34096 -16 0
34374 17 0
34096 -17 0
28548 18 0
34096 -18 0
39970 19 0
34096 -19 0
34514 20 0
34096 -20 0
22346 21 0
34096 -21 0
25228 22 0
34096 -22 0
36200 23 0
34096 -23 0
39604 24 0
34096 -24 0
31412 25 0
34096 -25 0
36150 26 0
34096 -26 0
37084 27 0
34096 -27 0
37138 28 0
34096 -28 0
31397 2 0
34096 -2 0
27452 29 0
34096 -29 0
30574 30 0
34096 -30 0
31128 31 0
34096 -31 0
23100 32 0
34096 -32 0
35282 33 0
34096 -33 0
35118 34 0
34096 -34 0
26698 35 0
34096 -35 0
35582 36 0
34096 -36 0
34416 37 0
34096 -37 0
35928 38 0
34096 -38 0
30804 39 0
34096 -39 0
30898 40 0
34096 -40 0
33296 3 0
34096 -3 0
33270 41 0
34096 -41 0
36414 42 0
34096 -42 0
27520 43 0
34096 -43 0
35852 44 0
34096 -44 0
34250 45 0
34096 -45 0
24354 46 0
34096 -46 0
41492 47 0
34096 -47 0
33666 48 0
34096 -48 0
37518 49 0
34096 -49 0
30778 50 0
34096 -50 0
31054 51 0
34096 -51 0
38215 4 0
34096 -4 0
41288 52 0
34096 -52 0
35588 53 0
34096 -53 0
26776 54 0
34096 -54 0
33086 55 0
34096 -55 0
38068 56 0
34096 -56 0
36262 57 0
34096 -57 0
32156 58 0
34096 -58 0
31718 59 0
34096 -59 0
36392 60 0
34096 -60 0
37060 61 0
34096 -61 0
21907 5 0
34096 -5 0
29888 62 0
34096 -62 0
36462 63 0
34096 -63 0
32304 64 0
34096 -64 0
32506 65 0
34096 -65 0
33806 66 0
34096 -66 0
36830 67 0
34096 -67 0
35762 68 0
34096 -68 0
33170 69 0
34096 -69 0
34252 70 0
34096 -70 0
31416 6 0
34096 -6 0
34326 71 0
34096 -71 0
34954 72 0
34096 -72 0
28752 73 0
34096 -73 0
32958 74 0
34096 -74 0
36800 75 0
34096 -75 0
36058 76 0
34096 -76 0
30836 77 0
34096 -77 0
30976 78 0
34096 -78 0
27903 7 0
34096 -7 0
28730 79 0
34096 -79 0
37594 80 0
34096 -80 0
35016 81 0
34096 -81 0
39894 82 0
34096 -82 0
33978 83 0
34096 -83 0
34198 84 0
34096 -84 0
35734 85 0
34096 -85 0
31201 8 0
34096 -8 0
34364 86 0
34096 -86 0
39342 87 0
34096 -87 0
32632 88 0
34096 -88 0
35846 89 0
34096 -89 0
35836 90 0
34096 -90 0
36436 91 0
34096 -91 0
33785 9 0
34096 -9 0
37328 92 0
34096 -92 0
34350 93 0
34096 -93 0
36570 94 0
34096 -94 0
31198 95 0
34096 -95 0
31054 96 0
34096 -96 0
23033 10 0
34096 -10 0
36220 97 0
34096 -97 0
31356 98 0
34096 -98 0
32984 99 0
34096 -99 0
31678 100 0
34096 -100 0
32492 11 0
34096 -11 0
34290 101 0
34096 -101 0
36564 102 0
34096 -102 0
35578 103 0
34096 -103 0
33030 12 0
34096 -12 0
34490 104 0
34096 -104 0
34252 105 0
34096 -105 0
33544 13 0
34096 -13 0
31678 106 0
34096 -106 0
32731 14 0
34096 -14 0
